\* Course_Scheduling *\
Minimize
OBJ: __dummy
Subject To
Sum_of_Assignments_for_class_A: Class_Assignment_A_1 + Class_Assignment_A_2
 + Class_Assignment_A_3 = 1
Sum_of_Assignments_for_class_B: Class_Assignment_B_1 = 1
Sum_of_Assignments_for_class_C: Class_Assignment_C_1 + Class_Assignment_C_2
 + Class_Assignment_C_3 = 1
Sum_of_Assignments_for_class_D: Class_Assignment_D_1 + Class_Assignment_D_2
 = 1
Sum_of_Assignments_for_class_E: Class_Assignment_E_2 + Class_Assignment_E_3
 = 1
Sum_of_Assignments_for_room_A: Room_Assignment_A_1 + Room_Assignment_A_2
 + Room_Assignment_A_3 = 1
Sum_of_Assignments_for_room_B: Room_Assignment_B_1 + Room_Assignment_B_2
 + Room_Assignment_B_3 = 1
Sum_of_Assignments_for_room_C: Room_Assignment_C_1 + Room_Assignment_C_2
 + Room_Assignment_C_3 = 1
Sum_of_Assignments_for_room_D: Room_Assignment_D_1 + Room_Assignment_D_2
 + Room_Assignment_D_3 = 1
Sum_of_Assignments_for_room_E: Room_Assignment_E_1 + Room_Assignment_E_2
 + Room_Assignment_E_3 = 1
Bounds
 0 <= Class_Assignment_A_1
 0 <= Class_Assignment_A_2
 0 <= Class_Assignment_A_3
 0 <= Class_Assignment_B_1
 0 <= Class_Assignment_C_1
 0 <= Class_Assignment_C_2
 0 <= Class_Assignment_C_3
 0 <= Class_Assignment_D_1
 0 <= Class_Assignment_D_2
 0 <= Class_Assignment_E_2
 0 <= Class_Assignment_E_3
 0 <= Room_Assignment_A_1
 0 <= Room_Assignment_A_2
 0 <= Room_Assignment_A_3
 0 <= Room_Assignment_B_1
 0 <= Room_Assignment_B_2
 0 <= Room_Assignment_B_3
 0 <= Room_Assignment_C_1
 0 <= Room_Assignment_C_2
 0 <= Room_Assignment_C_3
 0 <= Room_Assignment_D_1
 0 <= Room_Assignment_D_2
 0 <= Room_Assignment_D_3
 0 <= Room_Assignment_E_1
 0 <= Room_Assignment_E_2
 0 <= Room_Assignment_E_3
 __dummy = 0
Generals
Class_Assignment_A_1
Class_Assignment_A_2
Class_Assignment_A_3
Class_Assignment_B_1
Class_Assignment_C_1
Class_Assignment_C_2
Class_Assignment_C_3
Class_Assignment_D_1
Class_Assignment_D_2
Class_Assignment_E_2
Class_Assignment_E_3
Room_Assignment_A_1
Room_Assignment_A_2
Room_Assignment_A_3
Room_Assignment_B_1
Room_Assignment_B_2
Room_Assignment_B_3
Room_Assignment_C_1
Room_Assignment_C_2
Room_Assignment_C_3
Room_Assignment_D_1
Room_Assignment_D_2
Room_Assignment_D_3
Room_Assignment_E_1
Room_Assignment_E_2
Room_Assignment_E_3
End
